proyfinal/src/viki/013/experimentInOfficeAgust.take6.output/ccb9e710-6f72-4bf2-879d-66405d90fba3.als.dat
{'cnf.clauses': '118081',
 'cnf.totvars': '69608',
 'conflict literals': '59',
 'conflicts': '18',
 'decisions': '2426',
 'memused.mb': '15.48',
 'outcome': 'UNSAT',
 'propagations': '19547',
 'restarts': '1',
 'solver.msecs': 27,
 'task.msecs': 71}
