proyfinal/src/viki/013/experimentInOfficeAgust.take6.output/ccb9e710-6f72-4bf2-879d-66405d90fba3.als.out
Reading from standard input... Use '--help' for help.
============================[ Problem Statistics ]=============================
|                                                                             |
|  Number of variables:         69608                                         |
|  Number of clauses:          118081                                         |
|  Parse time:                   0.02 s                                       |
|                                                                             |
============================[ Search Statistics ]==============================
| Conflicts |          ORIGINAL         |          LEARNT          | Progress |
|           |    Vars  Clauses Literals |    Limit  Clauses Lit/Cl |          |
===============================================================================
===============================================================================
restarts              : 1
conflicts             : 18             (649 /sec)
decisions             : 2426           (0.00 % random) (87468 /sec)
propagations          : 19547          (704752 /sec)
conflict literals     : 59             (0.00 % deleted)
Memory used           : 15.48 MB
CPU time              : 0.027736 s

UNSATISFIABLE
